
Gurobi 7.5.1 (linux64, Python) logging started Sun Oct 15 15:09:30 2017

Academic license - for non-commercial use only

Gurobi 7.5.1 (linux64, Python) logging started Sun Oct 15 15:09:53 2017

Academic license - for non-commercial use only

Gurobi 7.5.1 (linux64, Python) logging started Sun Oct 15 15:10:36 2017

Academic license - for non-commercial use only
